p cnf 41
-1 -1
-2 -7
-3 -11
-4 -15
-5 -1
-5 2
1 -2 5
-6 1
-6 -2
-1 2 6
-7 -5
-7 -6
5 6 7
-8 1
-8 2
-1 -2 8
-9 3
-9 -8
-3 8 9
-10 -3
-10 8
3 -8 10
-11 -9
-11 -10
9 10 11
-12 3
-12 8
-3 -8 12
-13 4
-13 -12
-4 12 13
-14 -4
-14 12
4 -12 14
-15 -13
-15 -14
13 14 15
-16 4
-16 12
-4 -12 16
16
